WARNING: for repeatability, setting FPU to use double precision
============================[ Problem Statistics ]=============================
|                                                                             |
|  Number of variables:        228166                                         |
|  Number of clauses:          527248                                         |
|  Parse time:                   0.28 s                                       |
|                                                                             |
============================[ Search Statistics ]==============================
| Conflicts |          ORIGINAL         |          LEARNT          | Progress |
|           |    Vars  Clauses Literals |    Limit  Clauses Lit/Cl |          |
===============================================================================
|       100 |  125768   505120  1135408 |   185210      100     10 | 44.879 % |
|       250 |  125768   505120  1135408 |   203731      250     30 | 44.879 % |
|       475 |  125768   505120  1135408 |   224104      475     39 | 44.879 % |
|       812 |  125768   505120  1135408 |   246515      812     32 | 44.879 % |
|      1318 |  125768   505120  1135408 |   271166     1318     30 | 44.879 % |
|      2077 |  125768   505120  1135408 |   298283     2077     31 | 44.879 % |
|      3216 |  125768   505120  1135408 |   328111     3216     48 | 44.879 % |
===============================================================================
restarts              : 23
conflicts             : 4487           (1123 /sec)
decisions             : 72311          (0.00 % random) (18095 /sec)
propagations          : 13486827       (3374872 /sec)
conflict literals     : 191081         (7.51 % deleted)
Memory used           : 62.00 MB
CPU time              : 3.99625 s

SATISFIABLE
